120 150
1 91 6 8 9 10 11 13 15 19 22 25 26 28 32 35 38 41 44 45 46 48 52 55 58 60 63 64 67 68 69 70 71 75 77 81 82 84 85 87 88 92 93 95 96 97 99 101 104 106 107 112 114 115 116 117 118 120
2 55 6 7 8 9 10 11 12 13 14 15 16 19 21 22 23 24 25 26 27 28 31 32 33 66 35 36 37 38 40 41 43 44 45 46 48 52 53 55 57 58 59 60 62 63 64 65 67 68 69 70 71 72 73 74 75 76 77 78 79 81 82 83 84 85 87 88 89 91 92 93 95 96 97 98 99 100 101 103 104 105 106 107 108 109 111 112 113 114 115 116 117 118 119 120
3 60 6 10 11 13 19 22 25 26 28 32 35 38 41 44 45 46 48 52 55 58 63 64 67 68 69 71 75 77 81 82 84 85 87 88 92 93 95 96 97 99 101 104 106 107 112 114 115 116 118 120
4 37 6 8 9 10 11 13 15 19 22 25 26 28 32 33 35 36 38 41 44 45 46 48 52 55 58 60 63 64 67 68 69 70 71 75 76 77 81 82 84 85 87 88 92 93 95 96 97 99 101 104 106 107 112 114 115 116 117 118 120
5 86 6 8 9 10 11 13 15 19 22 25 26 28 32 35 38 41 44 45 46 48 52 55 58 60 63 64 67 68 69 70 71 75 77 81 82 84 85 87 88 92 93 95 96 97 99 101 104 106 107 112 114 115 116 117 118 120
6 21 7 8 9 10 11 12 13 14 15 16 17 18 19 20 21 22 23 24 25 26 27 28 29 30 31 32 33 66 34 35 36 37 38 39 40 41 42 43 44 45 46 47 48 49 50 51 52 53 54 55 56 57 58 59 60 61 62 63 64 65 67 68 69 70 71 72 73 74 75 76 77 78 79 80 81 82 83 84 85 86 87 88 89 90 91 92 93 94 95 96 97 98 99 100 101 102 103 104 105 106 107 108 109 110 111 112 113 114 115 116 117 118 119 120
7 21 8 9 10 11 13 14 15 16 19 22 24 25 26 27 28 31 32 33 66 35 36 37 38 40 41 43 44 45 46 48 52 53 55 57 58 59 60 62 63 64 67 68 69 70 71 72 75 76 77 79 81 82 84 85 87 88 89 91 92 93 95 96 97 98 99 101 104 105 106 107 109 111 112 113 114 115 116 117 118 119 120
8 43 9 10 11 12 13 14 15 16 17 18 19 20 21 22 23 24 25 26 27 28 29 30 31 32 33 66 34 35 36 37 38 39 40 41 42 43 44 45 46 47 48 49 51 52 53 54 55 56 57 58 59 60 61 62 63 64 65 67 68 69 70 71 72 73 74 75 76 77 78 79 80 81 82 83 84 85 86 87 88 89 90 91 92 93 94 95 96 97 98 99 100 101 102 103 104 105 106 107 108 109 110 111 112 113 114 115 116 117 118 119 120
9 77 10 11 12 13 14 15 16 17 18 19 20 21 22 23 24 25 26 27 28 29 30 31 32 33 66 34 35 36 37 38 39 40 41 42 43 44 45 46 47 48 49 52 53 54 55 57 58 59 60 61 62 63 64 65 67 68 69 70 71 72 73 74 75 76 77 78 79 80 81 82 83 84 85 86 87 88 89 90 91 92 93 94 95 96 97 98 99 100 101 102 103 104 105 106 107 108 109 111 112 113 114 115 116 117 118 119 120
10 75 11 12 13 14 15 16 17 18 19 20 21 22 23 24 25 26 27 28 29 30 31 32 33 66 34 35 36 37 38 39 40 41 42 43 44 45 46 47 48 49 50 51 52 53 54 55 56 57 58 59 60 61 62 63 64 65 67 68 69 70 71 72 73 74 75 76 77 78 79 80 81 82 83 84 85 86 87 88 89 90 91 92 93 94 95 96 97 98 99 100 101 102 103 104 105 106 107 108 109 110 111 112 113 114 115 116 117 118 119 120
11 92 12 13 14 15 16 17 18 19 20 21 22 23 24 25 26 27 28 29 30 31 32 33 66 34 35 36 37 38 39 40 41 42 43 44 45 46 47 48 49 50 51 52 53 54 55 56 57 58 59 60 61 62 63 64 65 67 68 69 70 71 72 73 74 75 76 77 78 79 80 81 82 83 84 85 86 87 88 89 90 91 92 93 94 95 96 97 98 99 100 101 102 103 104 105 106 107 108 109 110 111 112 113 114 115 116 117 118 119 120
12 33 13 14 15 16 19 22 24 25 26 28 32 33 35 36 37 38 40 41 44 45 46 48 52 53 55 57 58 60 63 64 67 68 69 70 71 75 76 77 79 81 82 84 85 87 88 92 93 95 96 97 99 101 104 106 107 109 111 112 113 114 115 116 117 118 120
13 59 14 15 16 17 18 19 20 21 22 23 24 25 26 27 28 29 30 31 32 33 66 34 35 36 37 38 39 40 41 42 43 44 45 46 47 48 49 50 51 52 53 54 55 56 57 58 59 60 61 62 63 64 65 67 68 69 70 71 72 73 74 75 76 77 78 79 80 81 82 83 84 85 86 87 88 89 90 91 92 93 94 95 96 97 98 99 100 101 102 103 104 105 106 107 108 109 110 111 112 113 114 115 116 117 118 119 120
14 74 15 16 19 22 24 25 26 27 28 31 32 33 66 35 36 37 38 40 41 43 44 45 46 48 52 53 55 57 58 59 60 62 63 64 67 68 69 70 71 72 75 76 77 79 81 82 83 84 85 87 88 89 91 92 93 95 96 97 98 99 100 101 103 104 105 106 107 108 109 111 112 113 114 115 116 117 118 119 120
15 40 16 17 18 19 20 21 22 23 24 25 26 27 28 29 30 31 32 33 66 34 35 36 37 38 39 40 41 42 43 44 45 46 47 48 49 51 52 53 54 55 56 57 58 59 60 61 62 63 64 65 67 68 69 70 71 72 73 74 75 76 77 78 79 80 81 82 83 84 85 86 87 88 89 90 91 92 93 94 95 96 97 98 99 100 101 102 103 104 105 106 107 108 109 110 111 112 113 114 115 116 117 118 119 120
16 36 19 22 23 24 25 26 27 28 31 32 33 66 35 36 37 38 40 41 43 44 45 46 48 52 53 55 57 58 59 60 62 63 64 67 68 69 70 71 72 73 74 75 76 77 79 81 82 83 84 85 87 88 89 91 92 93 95 96 97 98 99 100 101 103 104 105 106 107 108 109 111 112 113 114 115 116 117 118 119 120
17 62 19 22 25 26 28 32 33 35 36 38 40 41 44 45 46 48 52 53 55 57 58 60 63 64 67 68 69 70 71 75 76 77 79 81 82 84 85 87 88 92 93 95 96 97 99 101 104 106 107 112 114 115 116 117 118 120
18 21 19 22 25 26 28 32 33 35 36 38 41 44 45 46 48 52 55 58 60 63 64 67 68 69 70 71 75 76 77 81 82 84 85 87 88 92 93 95 96 97 99 101 104 106 107 112 114 115 116 117 118 120
19 56 20 21 22 23 24 25 26 27 28 29 30 31 32 33 66 34 35 36 37 38 39 40 41 42 43 44 45 46 47 48 49 50 51 52 53 54 55 56 57 58 59 60 61 62 63 64 65 67 68 69 70 71 72 73 74 75 76 77 78 79 80 81 82 83 84 85 86 87 88 89 90 91 92 93 94 95 96 97 98 99 100 101 102 103 104 105 106 107 108 109 110 111 112 113 114 115 116 117 118 119 120
20 38 22 25 26 28 32 33 35 36 38 41 44 45 46 48 52 55 58 60 63 64 67 68 69 70 71 75 76 77 79 81 82 84 85 87 88 92 93 95 96 97 99 101 104 106 107 112 114 115 116 117 118 120
21 22 22 25 26 28 32 33 35 36 38 40 41 44 45 46 48 52 53 55 57 58 60 63 64 67 68 69 70 71 75 76 77 79 81 82 84 85 87 88 92 93 95 96 97 99 101 104 106 107 109 112 113 114 115 116 117 118 120
22 45 23 24 25 26 27 28 29 30 31 32 33 66 34 35 36 37 38 39 40 41 42 43 44 45 46 47 48 49 50 51 52 53 54 55 56 57 58 59 60 61 62 63 64 65 67 68 69 70 71 72 73 74 75 76 77 78 79 80 81 82 83 84 85 86 87 88 89 90 91 92 93 94 95 96 97 98 99 100 101 102 103 104 105 106 107 108 109 110 111 112 113 114 115 116 117 118 119 120
23 94 25 26 28 32 33 35 36 37 38 40 41 44 45 46 48 52 53 55 57 58 60 63 64 67 68 69 70 71 75 76 77 79 81 82 84 85 87 88 92 93 95 96 97 99 101 104 106 107 109 111 112 113 114 115 116 117 118 120
24 68 25 26 27 28 31 32 33 66 35 36 37 38 40 41 43 44 45 46 48 52 53 55 57 58 59 60 62 63 64 67 68 69 70 71 72 75 76 77 79 81 82 83 84 85 87 88 89 91 92 93 95 96 97 98 99 100 101 103 104 105 106 107 108 109 111 112 113 114 115 116 117 118 119 120
25 83 26 27 28 29 30 31 32 33 66 34 35 36 37 38 39 40 41 42 43 44 45 46 47 48 49 50 51 52 53 54 55 56 57 58 59 60 61 62 63 64 65 67 68 69 70 71 72 73 74 75 76 77 78 79 80 81 82 83 84 85 86 87 88 89 90 91 92 93 94 95 96 97 98 99 100 101 102 103 104 105 106 107 108 109 110 111 112 113 114 115 116 117 118 119 120
26 86 27 28 29 30 31 32 33 66 34 35 36 37 38 39 40 41 42 43 44 45 46 47 48 49 50 51 52 53 54 55 56 57 58 59 60 61 62 63 64 65 67 68 69 70 71 72 73 74 75 76 77 78 79 80 81 82 83 84 85 86 87 88 89 90 91 92 93 94 95 96 97 98 99 100 101 102 103 104 105 106 107 108 109 110 111 112 113 114 115 116 117 118 119 120
27 75 28 31 32 33 66 35 36 37 38 40 41 43 44 45 46 48 52 53 55 57 58 59 60 62 63 64 67 68 69 70 71 72 75 76 77 79 81 82 84 85 87 88 89 91 92 93 95 96 97 98 99 101 103 104 105 106 107 108 109 111 112 113 114 115 116 117 118 119 120
28 21 29 30 31 32 33 66 34 35 36 37 38 39 40 41 42 43 44 45 46 47 48 49 50 51 52 53 54 55 56 57 58 59 60 61 62 63 64 65 67 68 69 70 71 72 73 74 75 76 77 78 79 80 81 82 83 84 85 86 87 88 89 90 91 92 93 94 95 96 97 98 99 100 101 102 103 104 105 106 107 108 109 110 111 112 113 114 115 116 117 118 119 120
29 40 32 33 35 36 38 41 44 45 46 48 52 55 58 60 63 64 67 68 69 70 71 75 76 77 79 81 82 84 85 87 88 92 93 95 96 97 99 101 104 106 107 112 114 115 116 117 118 120
30 44 32 35 36 38 41 44 45 46 48 52 55 58 60 63 64 67 68 69 70 71 75 76 77 81 82 84 85 87 88 92 93 95 96 97 99 101 104 106 107 112 114 115 116 117 118 120
31 74 32 33 66 35 36 37 38 40 41 44 45 46 48 52 53 55 57 58 59 60 63 64 67 68 69 70 71 72 75 76 77 79 81 82 84 85 87 88 89 91 92 93 95 96 97 98 99 101 104 105 106 107 109 111 112 113 114 115 116 117 118 120
32 52 33 66 34 35 36 37 38 39 40 41 42 43 44 45 46 47 48 49 50 51 52 53 54 55 56 57 58 59 60 61 62 63 64 65 67 68 69 70 71 72 73 74 75 76 77 78 79 80 81 82 83 84 85 86 87 88 89 90 91 92 93 94 95 96 97 98 99 100 101 102 103 104 105 106 107 108 109 110 111 112 113 114 115 116 117 118 119 120
33 61 66 34 35 36 37 38 39 40 41 43 44 45 46 48 49 52 53 55 57 58 59 60 62 63 64 65 67 68 69 70 71 72 73 74 75 76 77 78 79 80 81 82 83 84 85 86 87 88 89 91 92 93 94 95 96 97 98 99 100 101 103 104 105 106 107 108 109 111 112 113 114 115 116 117 118 119 120
34 95 35 36 38 41 44 45 46 48 52 55 58 60 63 64 67 68 69 70 71 75 76 77 81 82 84 85 87 88 92 93 95 96 97 99 101 104 106 107 112 114 115 116 117 118 120
35 20 66 36 37 38 39 40 41 42 43 44 45 46 47 48 49 50 51 52 53 54 55 56 57 58 59 60 61 62 63 64 65 67 68 69 70 71 72 73 74 75 76 77 78 79 80 81 82 83 84 85 86 87 88 89 90 91 92 93 94 95 96 97 98 99 100 101 102 103 104 105 106 107 108 109 110 111 112 113 114 115 116 117 118 119 120
36 79 66 37 38 39 40 41 43 44 45 46 48 49 52 53 55 57 58 59 60 61 62 63 64 65 67 68 69 70 71 72 73 74 75 76 77 78 79 80 81 82 83 84 85 86 87 88 89 91 92 93 94 95 96 97 98 99 100 101 102 103 104 105 106 107 108 109 111 112 113 114 115 116 117 118 119 120
37 76 66 38 40 41 43 44 45 46 48 52 53 55 57 58 59 60 62 63 64 65 67 68 69 70 71 72 73 74 75 76 77 78 79 81 82 83 84 85 87 88 89 91 92 93 95 96 97 98 99 100 101 103 104 105 106 107 108 109 111 112 113 114 115 116 117 118 119 120
38 32 66 39 40 41 42 43 44 45 46 47 48 49 50 51 52 53 54 55 56 57 58 59 60 61 62 63 64 65 67 68 69 70 71 72 73 74 75 76 77 78 79 80 81 82 83 84 85 86 87 88 89 90 91 92 93 94 95 96 97 98 99 100 101 102 103 104 105 106 107 108 109 110 111 112 113 114 115 116 117 118 119 120
39 21 41 44 45 46 48 52 55 58 60 63 64 67 68 69 70 71 75 76 77 81 82 84 85 87 88 92 93 95 96 97 99 101 104 106 107 112 114 115 116 117 118 120
40 91 66 41 43 44 45 46 48 52 53 55 57 58 59 60 62 63 64 65 67 68 69 70 71 72 73 74 75 76 77 78 79 81 82 83 84 85 87 88 89 91 92 93 95 96 97 98 99 100 101 103 104 105 106 107 108 109 111 112 113 114 115 116 117 118 119 120
41 83 66 42 43 44 45 46 47 48 49 50 51 52 53 54 55 56 57 58 59 60 61 62 63 64 65 67 68 69 70 71 72 73 74 75 76 77 78 79 80 81 82 83 84 85 86 87 88 89 90 91 92 93 94 95 96 97 98 99 100 101 102 103 104 105 106 107 108 109 110 111 112 113 114 115 116 117 118 119 120
42 39 44 45 46 48 52 55 58 60 63 64 67 68 69 70 71 75 77 81 82 84 85 87 88 92 93 95 96 97 99 101 104 106 107 112 114 115 116 117 118 120
43 31 66 44 45 46 48 52 53 55 57 58 59 60 63 64 67 68 69 70 71 75 76 77 79 81 82 84 85 87 88 92 93 95 96 97 98 99 101 104 106 107 109 111 112 113 114 115 116 117 118 120
44 81 66 45 46 47 48 49 50 51 52 53 54 55 56 57 58 59 60 61 62 63 64 65 67 68 69 70 71 72 73 74 75 76 77 78 79 80 81 82 83 84 85 86 87 88 89 90 91 92 93 94 95 96 97 98 99 100 101 102 103 104 105 106 107 108 109 110 111 112 113 114 115 116 117 118 119 120
45 41 66 46 47 48 49 50 51 52 53 54 55 56 57 58 59 60 61 62 63 64 65 67 68 69 70 71 72 73 74 75 76 77 78 79 80 81 82 83 84 85 86 87 88 89 90 91 92 93 94 95 96 97 98 99 100 101 102 103 104 105 106 107 108 109 110 111 112 113 114 115 116 117 118 119 120
46 90 66 47 48 49 50 51 52 53 54 55 56 57 58 59 60 61 62 63 64 65 67 68 69 70 71 72 73 74 75 76 77 78 79 80 81 82 83 84 85 86 87 88 89 90 91 92 93 94 95 96 97 98 99 100 101 102 103 104 105 106 107 108 109 110 111 112 113 114 115 116 117 118 119 120
47 74 48 52 55 58 60 63 64 67 68 69 70 71 75 77 81 82 84 85 87 88 92 93 95 96 97 99 101 104 106 107 112 114 115 116 117 118 120
48 100 66 49 50 51 52 53 54 55 56 57 58 59 60 61 62 63 64 65 67 68 69 70 71 72 73 74 75 76 77 78 79 80 81 82 83 84 85 86 87 88 89 90 91 92 93 94 95 96 97 98 99 100 101 102 103 104 105 106 107 108 109 110 111 112 113 114 115 116 117 118 119 120
49 38 52 55 58 60 63 64 67 68 69 70 71 75 76 77 81 82 84 85 87 88 92 93 95 96 97 99 101 104 106 107 112 114 115 116 117 118 120
50 33 52 55 58 63 64 67 68 69 71 75 77 81 82 84 85 87 92 93 95 96 97 99 101 104 106 107 112 114 115 116 118 120
51 74 52 55 58 60 63 64 67 68 69 71 75 77 81 82 84 85 87 88 92 93 95 96 97 99 101 104 106 107 112 114 115 116 118 120
52 40 66 53 54 55 56 57 58 59 60 61 62 63 64 65 67 68 69 70 71 72 73 74 75 76 77 78 79 80 81 82 83 84 85 86 87 88 89 90 91 92 93 94 95 96 97 98 99 100 101 102 103 104 105 106 107 108 109 110 111 112 113 114 115 116 117 118 119 120
53 80 66 55 57 58 59 60 62 63 64 65 67 68 69 70 71 72 73 74 75 76 77 78 79 81 82 83 84 85 87 88 89 91 92 93 95 96 97 98 99 100 101 103 104 105 106 107 108 109 111 112 113 114 115 116 117 118 119 120
54 39 55 58 60 63 64 67 68 69 70 71 75 77 81 82 84 85 87 88 92 93 95 96 97 99 101 104 106 107 112 114 115 116 117 118 120
55 22 66 56 57 58 59 60 61 62 63 64 65 67 68 69 70 71 72 73 74 75 76 77 78 79 80 81 82 83 84 85 86 87 88 89 90 91 92 93 94 95 96 97 98 99 100 101 102 103 104 105 106 107 108 109 110 111 112 113 114 115 116 117 118 119 120
56 46 58 60 63 64 67 68 69 70 71 75 77 81 82 84 85 87 88 92 93 95 96 97 99 101 104 106 107 112 114 115 116 117 118 120
57 58 66 58 59 60 62 63 64 65 67 68 69 70 71 72 73 74 75 76 77 78 79 81 82 83 84 85 87 88 89 91 92 93 95 96 97 98 99 100 101 103 104 105 106 107 108 109 111 112 113 114 115 116 117 118 119 120
58 65 66 59 60 61 62 63 64 65 67 68 69 70 71 72 73 74 75 76 77 78 79 80 81 82 83 84 85 86 87 88 89 90 91 92 93 94 95 96 97 98 99 100 101 102 103 104 105 106 107 108 109 110 111 112 113 114 115 116 117 118 119 120
59 67 66 60 62 63 64 67 68 69 70 71 72 75 76 77 79 81 82 84 85 87 88 89 91 92 93 95 96 97 98 99 101 103 104 105 106 107 108 109 111 112 113 114 115 116 117 118 119 120
60 37 66 61 62 63 64 65 67 68 69 70 71 72 73 74 75 76 77 78 79 80 81 82 83 84 85 86 87 88 89 90 91 92 93 94 95 96 97 98 99 100 101 102 103 104 105 106 107 108 109 110 111 112 113 114 115 116 117 118 119 120
61 82 63 64 67 68 69 70 71 75 76 77 81 82 84 85 87 88 92 93 95 96 97 99 101 104 106 107 112 114 115 116 117 118 120
62 64 66 63 64 67 68 69 70 71 72 75 76 77 79 81 82 84 85 87 88 89 92 93 95 96 97 98 99 101 104 105 106 107 109 111 112 113 114 115 116 117 118 120
63 26 66 64 65 67 68 69 70 71 72 73 74 75 76 77 78 79 80 81 82 83 84 85 86 87 88 89 90 91 92 93 94 95 96 97 98 99 100 101 102 103 104 105 106 107 108 109 110 111 112 113 114 115 116 117 118 119 120
64 80 66 65 67 68 69 70 71 72 73 74 75 76 77 78 79 80 81 82 83 84 85 86 87 88 89 90 91 92 93 94 95 96 97 98 99 100 101 102 103 104 105 106 107 108 109 110 111 112 113 114 115 116 117 118 119 120
65 74 67 68 69 70 71 75 76 77 79 81 82 84 85 87 88 92 93 95 96 97 99 101 104 106 107 109 112 113 114 115 116 117 118 120
66 20 67 68 69 70 71 72 75 76 77 79 81 82 83 84 85 87 88 89 91 92 93 95 96 97 98 99 100 101 103 104 105 106 107 108 109 111 112 113 114 115 116 117 118 119 120
67 62 68 69 70 71 72 73 74 75 76 77 78 79 80 81 82 83 84 85 86 87 88 89 90 91 92 93 94 95 96 97 98 99 100 101 102 103 104 105 106 107 108 109 110 111 112 113 114 115 116 117 118 119 120
68 82 69 70 71 72 73 74 75 76 77 78 79 80 81 82 83 84 85 86 87 88 89 90 91 92 93 94 95 96 97 98 99 100 101 102 103 104 105 106 107 108 109 110 111 112 113 114 115 116 117 118 119 120
69 40 70 71 72 73 74 75 76 77 78 79 80 81 82 83 84 85 86 87 88 89 90 91 92 93 94 95 96 97 98 99 100 101 102 103 104 105 106 107 108 109 110 111 112 113 114 115 116 117 118 119 120
70 28 71 72 73 74 75 76 77 78 79 80 81 82 83 84 85 86 87 88 89 90 91 92 93 94 95 96 97 98 99 100 101 102 103 104 105 106 107 108 109 111 112 113 114 115 116 117 118 119 120
71 72 72 73 74 75 76 77 78 79 80 81 82 83 84 85 86 87 88 89 90 91 92 93 94 95 96 97 98 99 100 101 102 103 104 105 106 107 108 109 110 111 112 113 114 115 116 117 118 119 120
72 45 75 76 77 79 81 82 84 85 87 88 89 91 92 93 95 96 97 98 99 101 104 105 106 107 109 111 112 113 114 115 116 117 118 119 120
73 62 75 76 77 79 81 82 84 85 87 88 92 93 95 96 97 99 101 104 106 107 109 111 112 113 114 115 116 117 118 120
74 72 75 76 77 79 81 82 84 85 87 88 92 93 95 96 97 99 101 104 106 107 109 111 112 113 114 115 116 117 118 120
75 89 76 77 78 79 80 81 82 83 84 85 86 87 88 89 90 91 92 93 94 95 96 97 98 99 100 101 102 103 104 105 106 107 108 109 110 111 112 113 114 115 116 117 118 119 120
76 31 77 78 79 80 81 82 83 84 85 86 87 88 89 91 92 93 94 95 96 97 98 99 100 101 103 104 105 106 107 108 109 111 112 113 114 115 116 117 118 119 120
77 92 78 79 80 81 82 83 84 85 86 87 88 89 90 91 92 93 94 95 96 97 98 99 100 101 102 103 104 105 106 107 108 109 110 111 112 113 114 115 116 117 118 119 120
78 63 79 81 82 84 85 87 88 92 93 95 96 97 99 101 104 106 107 109 112 113 114 115 116 117 118 120
79 89 80 81 82 83 84 85 87 88 89 91 92 93 95 96 97 98 99 100 101 103 104 105 106 107 108 109 111 112 113 114 115 116 117 118 119 120
80 33 81 82 84 85 87 88 92 93 95 96 97 99 101 104 106 107 112 114 115 116 117 118 120
81 25 82 83 84 85 86 87 88 89 90 91 92 93 94 95 96 97 98 99 100 101 102 103 104 105 106 107 108 109 110 111 112 113 114 115 116 117 118 119 120
82 54 83 84 85 86 87 88 89 90 91 92 93 94 95 96 97 98 99 100 101 102 103 104 105 106 107 108 109 110 111 112 113 114 115 116 117 118 119 120
83 66 84 85 87 88 92 93 95 96 97 99 101 104 106 107 109 111 112 113 114 115 116 117 118 120
84 100 85 86 87 88 89 90 91 92 93 94 95 96 97 98 99 100 101 102 103 104 105 106 107 108 109 110 111 112 113 114 115 116 117 118 119 120
85 20 86 87 88 89 90 91 92 93 94 95 96 97 98 99 100 101 102 103 104 105 106 107 108 109 110 111 112 113 114 115 116 117 118 119 120
86 90 87 88 92 93 95 96 97 99 101 104 106 107 112 114 115 116 117 118 120
87 87 88 89 90 91 92 93 94 95 96 97 98 99 100 101 102 103 104 105 106 107 108 109 110 111 112 113 114 115 116 117 118 119 120
88 48 89 90 91 92 93 94 95 96 97 98 99 100 101 102 103 104 105 106 107 108 109 110 111 112 113 114 115 116 117 118 119 120
89 28 91 92 93 95 96 97 98 99 101 104 105 106 107 109 111 112 113 114 115 116 117 118 119 120
90 46 92 93 95 96 97 99 101 104 106 107 112 114 115 116 117 118 120
91 76 92 93 95 96 97 98 99 101 104 105 106 107 109 111 112 113 114 115 116 117 118 120
92 50 93 94 95 96 97 98 99 100 101 102 103 104 105 106 107 108 109 110 111 112 113 114 115 116 117 118 119 120
93 66 94 95 96 97 98 99 100 101 102 103 104 105 106 107 108 109 110 111 112 113 114 115 116 117 118 119 120
94 30 95 96 97 99 101 104 106 107 112 114 115 116 117 118 120
95 26 96 97 98 99 100 101 102 103 104 105 106 107 108 109 110 111 112 113 114 115 116 117 118 119 120
96 23 97 98 99 100 101 102 103 104 105 106 107 108 109 110 111 112 113 114 115 116 117 118 119 120
97 40 98 99 100 101 102 103 104 105 106 107 108 109 110 111 112 113 114 115 116 117 118 119 120
98 70 99 101 104 105 106 107 109 111 112 113 114 115 116 117 118 119 120
99 57 100 101 102 103 104 105 106 107 108 109 110 111 112 113 114 115 116 117 118 119 120
100 92 101 104 106 107 109 111 112 113 114 115 116 117 118 120
101 52 102 103 104 105 106 107 108 109 110 111 112 113 114 115 116 117 118 119 120
102 54 104 106 107 112 114 115 116 117 118 120
103 27 104 106 107 109 111 112 113 114 115 116 117 118 120
104 58 105 106 107 108 109 110 111 112 113 114 115 116 117 118 119 120
105 66 106 107 109 111 112 113 114 115 116 117 118 119 120
106 65 107 108 109 110 111 112 113 114 115 116 117 118 119 120
107 93 108 109 110 111 112 113 114 115 116 117 118 119 120
108 83 109 111 112 113 114 115 116 117 118 120
109 37 111 112 113 114 115 116 117 118 119 120
110 62 112 114 115 116 118 120
111 94 112 113 114 115 116 117 118 119 120
112 29 113 114 115 116 117 118 119 120
113 66 114 115 116 117 118 119 120
114 98 115 116 117 118 119 120
115 20 116 117 118 119 120
116 66 117 118 119 120
117 42 118 119 120
118 52 119 120
119 90 120
120 22
